5	20
15 52	0 9	11 35	13 92	6 61	10 3	14 77	16 62	12 73	2 55	19 25	7 73	3 35	17 6	4 45	1 40	8 95	5 37	18 96	9 37
4 24	19 99	3 7	1 58	9 93	18 22	10 31	5 91	6 14	15 41	16 43	0 76	12 96	7 36	17 95	14 45	8 67	2 68	11 55	13 21
2 56	7 32	18 55	16 41	6 24	12 54	14 70	11 92	13 87	1 83	0 12	19 31	15 72	10 92	3 26	9 3	8 62	5 11	4 92	17 87
4 14	3 41	15 56	2 30	7 68	5 43	18 49	17 81	16 88	0 93	11 48	9 45	8 2	19 74	10 74	13 44	12 96	1 92	6 73	14 74
17 97	6 22	15 23	11 5	4 95	16 83	19 34	2 73	1 23	7 4	8 50	3 88	5 9	18 45	12 76	13 64	10 70	14 47	9 98	0 97
